1582
88 85 71 36 25 24 22 63 40 32 75 97 43 79 59 84 62 10 23 91 82 90 92 35 80 76 16 53 34 81 98 17 60 66 48 58 67 31 1 95 39 33 47 19 89 50 45 2 9 87 68 51 12 69 52 93 4 83 20 26 3 5 46 8 64 70 54 96 61 30 42 65 74 56 86 15 44 94 49 11 77 72 38 29 27 55 28 73 41 13 7 99 6 57 18 21 78 37 14 
